\ENCODING=ISO-8859-1
\Problem name: inst_10_cut_n10

Maximize
 obj1: 33 x0 + 28 x1 + 28 x2 + 57 x3 + 19 x4 + 98 x5 + 58 x6 + 82 x7
Subject To
 c0:     98 x0 + 85 x1 + 92 x2 + 53 x3 + 20 x4 + 81 x5 + 23 x6 + 43 x7 + s0
         <= 565
 c1:     7 x0 + 91 x1 + 65 x2 + 20 x3 + 34 x4 + 67 x5 + 34 x6 + 46 x7 + s1
         <= 700
 c2:     17 x0 + 3 x1 + 40 x2 + 20 x3 + 8 x4 + 45 x5 + 20 x6 + 71 x7 + s2
         <= 256
 c3:     61 x0 + 54 x1 + 20 x2 + 62 x3 + 37 x4 + 29 x5 + 73 x6 + 76 x7 + s3
         <= 290
 c4:     53 x0 + 49 x1 + 79 x2 + 35 x3 + 45 x4 + 38 x5 + 22 x6 + 32 x7 + s4
         <= 791
 c5:     80 x0 + 21 x1 + 9 x2 + 62 x3 + 22 x4 + 72 x5 + 15 x6 + 35 x7 + s5
         <= 118
 c6:     11 x0 + 50 x1 + 97 x2 + 94 x3 + 79 x4 + 14 x5 + 32 x6 + 26 x7 + s6
         <= 365
 c7:     64 x0 + 23 x1 + 43 x2 + 87 x3 + 95 x4 + 22 x5 + 81 x6 + 4 x7 + s7
         <= 468
 c8:     58 x0 + 68 x1 + 15 x2 + 30 x3 + 50 x4 + 53 x5 + 78 x6 + 97 x7 + s8
         <= 695
 c9:     69 x0 + 35 x1 + 99 x2 + 22 x3 + 84 x4 + 25 x5 + 32 x6 + 48 x7 + s9
         <= 94
 c10:    59 x0 + 31 x1 + 37 x2 + 71 x3 + 8 x4 + 57 x5 + 69 x6 + 14 x7 + s10
         <= 734
 cut_1:  65 x0 + 27 x1 + 65 x2 + 31 x3 + 59 x4 + 35 x5 + 24 x6 + 40 x7 <= 91
 cut_2:  3.00000000000001 x0 + x1 + 2 x2 + 2 x3 + 2.00000000000001 x4 + 2 x5
         + x6 + 2 x7 <= 4.99999999999997
 cut_3:  44 x0 + 16 x1 + 34 x2 + 24 x3 + 33 x4 + 27 x5 + 14 x6 + 25 x7 <= 62
 cut_4:  91 x0 + 38 x1 + 87 x2 + 44 x3 + 80 x4 + 50 x5 + 33 x6 + 55 x7 <= 127
 cut_5:  89 x0 + 34 x1 + 69 x2 + 49 x3 + 67 x4 + 56 x5 + 29 x6 + 51 x7 <= 127
 cut_6:  69 x0 + 34 x1 + 97 x2 + 23 x3 + 83 x4 + 26 x5 + 31 x6 + 48 x7 <= 95
 cut_7:  69 x0 + 31 x1 + 77 x2 + 30 x3 + 68 x4 + 34 x5 + 27 x6 + 44 x7 <= 96
 cut_8:  30 x0 + 12 x1 + 27 x2 + 15 x3 + 25 x4 + 17 x5 + 10 x6 + 18 x7 <= 42
 cut_9:  76 x0 + 32 x1 + 77 x2 + 36 x3 + 69 x4 + 41 x5 + 28 x6 + 47 x7 <= 107
 cut_10: 81 x0 + 21 x1 + 11 x2 + 62 x3 + 24 x4 + 71 x5 + 15 x6 + 36 x7 <= 119
Bounds
 0 <= x0 <= 1
 0 <= x1 <= 1
 0 <= x2 <= 1
 0 <= x3 <= 1
 0 <= x4 <= 1
 0 <= x5 <= 1
 0 <= x6 <= 1
 0 <= x7 <= 1
End
